60
120
96	1
95	1
94	1
93	3
91	2
90	2
89	2
88	1
87	1
86	1
85	4
83	1
82	2
81	1
80	1
79	1
78	1
76	3
75	1
73	4
72	1
71	1
70	3
68	1
67	1
65	3
64	2
63	1
62	1
60	1
59	1
56	1
55	2
54	2
52	2
50	2
49	5
48	1
47	3
46	2
45	2
41	1
39	1
38	1
37	1
35	2
34	1
33	1
29	3
28	1
25	1
23	1
22	3
21	1
20	2
18	1
16	1
15	3
14	2
13	1
